50 8
430 874
642 474
142 354
656 574
756 925
849 675
316 869
836 749
83 109
572 855
533 892
748 685
556 406
478 422
702 399
813 543
752 76
566 355
536 381
539 268
563 582
436 924
770 556
868 678
417 347
191 354
207 407
350 765
391 370
582 352
485 496
662 257
789 802
684 342
670 881
224 336
766 242
950 520
377 895
263 775
155 547
426 384
777 545
761 226
678 106
552 540
921 610
98 91
105 26
627 876
